(set-info :smt-lib-version 2.6)
(set-logic QF_AX)
(set-info :source |
Benchmarks used in the followin paper:
Big proof engines as little proof engines: new results on rewrite-based satisfiability procedure
Alessandro Armando, Maria Paola Bonacina, Silvio Ranise, Stephan Schulz. 
PDPAR'05
http://www.ai.dist.unige.it/pdpar05/


|)
(set-info :category "crafted")
(set-info :status unsat)
(declare-sort Index 0)
(declare-sort Element 0)
(declare-fun a_803 () (Array Index Element))
(declare-fun a_805 () (Array Index Element))
(declare-fun a_807 () (Array Index Element))
(declare-fun a_809 () (Array Index Element))
(declare-fun a_811 () (Array Index Element))
(declare-fun a_813 () (Array Index Element))
(declare-fun a_815 () (Array Index Element))
(declare-fun a_817 () (Array Index Element))
(declare-fun a_819 () (Array Index Element))
(declare-fun a_821 () (Array Index Element))
(declare-fun a_823 () (Array Index Element))
(declare-fun a_825 () (Array Index Element))
(declare-fun a_827 () (Array Index Element))
(declare-fun a_829 () (Array Index Element))
(declare-fun a_831 () (Array Index Element))
(declare-fun a_833 () (Array Index Element))
(declare-fun a_835 () (Array Index Element))
(declare-fun a_837 () (Array Index Element))
(declare-fun a_838 () (Array Index Element))
(declare-fun a_839 () (Array Index Element))
(declare-fun a_841 () (Array Index Element))
(declare-fun a_843 () (Array Index Element))
(declare-fun a_845 () (Array Index Element))
(declare-fun a_847 () (Array Index Element))
(declare-fun a_849 () (Array Index Element))
(declare-fun a_851 () (Array Index Element))
(declare-fun a_853 () (Array Index Element))
(declare-fun a_855 () (Array Index Element))
(declare-fun a_857 () (Array Index Element))
(declare-fun a_859 () (Array Index Element))
(declare-fun a_861 () (Array Index Element))
(declare-fun a_863 () (Array Index Element))
(declare-fun a_865 () (Array Index Element))
(declare-fun a_867 () (Array Index Element))
(declare-fun a_869 () (Array Index Element))
(declare-fun a_871 () (Array Index Element))
(declare-fun e_802 () Element)
(declare-fun e_804 () Element)
(declare-fun e_806 () Element)
(declare-fun e_808 () Element)
(declare-fun e_810 () Element)
(declare-fun e_812 () Element)
(declare-fun e_814 () Element)
(declare-fun e_816 () Element)
(declare-fun e_818 () Element)
(declare-fun e_820 () Element)
(declare-fun e_822 () Element)
(declare-fun e_824 () Element)
(declare-fun e_826 () Element)
(declare-fun e_828 () Element)
(declare-fun e_830 () Element)
(declare-fun e_832 () Element)
(declare-fun e_834 () Element)
(declare-fun e_836 () Element)
(declare-fun e_840 () Element)
(declare-fun e_842 () Element)
(declare-fun e_844 () Element)
(declare-fun e_846 () Element)
(declare-fun e_848 () Element)
(declare-fun e_850 () Element)
(declare-fun e_852 () Element)
(declare-fun e_854 () Element)
(declare-fun e_856 () Element)
(declare-fun e_858 () Element)
(declare-fun e_860 () Element)
(declare-fun e_862 () Element)
(declare-fun e_864 () Element)
(declare-fun e_866 () Element)
(declare-fun e_868 () Element)
(declare-fun e_870 () Element)
(declare-fun a1 () (Array Index Element))
(declare-fun i0 () Index)
(declare-fun i1 () Index)
(declare-fun i2 () Index)
(declare-fun i3 () Index)
(declare-fun i4 () Index)
(declare-fun i5 () Index)
(declare-fun i6 () Index)
(declare-fun i7 () Index)
(assert (= a_803 (store a1 i4 e_802)))
(assert (= a_805 (store a_803 i3 e_804)))
(assert (= a_807 (store a_805 i1 e_806)))
(assert (= a_809 (store a_807 i6 e_808)))
(assert (= a_811 (store a_809 i6 e_810)))
(assert (= a_813 (store a_811 i3 e_812)))
(assert (= a_815 (store a_813 i3 e_814)))
(assert (= a_817 (store a_815 i7 e_816)))
(assert (= a_819 (store a_817 i5 e_818)))
(assert (= a_821 (store a_819 i6 e_820)))
(assert (= a_823 (store a_821 i3 e_822)))
(assert (= a_825 (store a_823 i0 e_824)))
(assert (= a_827 (store a_825 i0 e_826)))
(assert (= a_829 (store a_827 i6 e_828)))
(assert (= a_831 (store a_829 i5 e_830)))
(assert (= a_833 (store a_831 i4 e_832)))
(assert (= a_835 (store a_833 i2 e_834)))
(assert (= a_837 (store a_835 i5 e_836)))
(assert (= a_838 (store a1 i3 e_804)))
(assert (= a_839 (store a_838 i4 e_802)))
(assert (= a_841 (store a_839 i6 e_840)))
(assert (= a_843 (store a_841 i1 e_842)))
(assert (= a_845 (store a_843 i6 e_844)))
(assert (= a_847 (store a_845 i3 e_846)))
(assert (= a_849 (store a_847 i7 e_848)))
(assert (= a_851 (store a_849 i3 e_850)))
(assert (= a_853 (store a_851 i5 e_852)))
(assert (= a_855 (store a_853 i6 e_854)))
(assert (= a_857 (store a_855 i3 e_856)))
(assert (= a_859 (store a_857 i0 e_858)))
(assert (= a_861 (store a_859 i0 e_860)))
(assert (= a_863 (store a_861 i6 e_862)))
(assert (= a_865 (store a_863 i5 e_864)))
(assert (= a_867 (store a_865 i4 e_866)))
(assert (= a_869 (store a_867 i2 e_868)))
(assert (= a_871 (store a_869 i5 e_870)))
(assert (= e_802 (select a1 i3)))
(assert (= e_804 (select a1 i4)))
(assert (= e_806 (select a_805 i6)))
(assert (= e_808 (select a_805 i1)))
(assert (= e_810 (select a_809 i3)))
(assert (= e_812 (select a_809 i6)))
(assert (= e_814 (select a_813 i7)))
(assert (= e_816 (select a_813 i3)))
(assert (= e_818 (select a_817 i6)))
(assert (= e_820 (select a_817 i5)))
(assert (= e_822 (select a_821 i0)))
(assert (= e_824 (select a_821 i3)))
(assert (= e_826 (select a_825 i6)))
(assert (= e_828 (select a_825 i0)))
(assert (= e_830 (select a_829 i4)))
(assert (= e_832 (select a_829 i5)))
(assert (= e_834 (select a_833 i5)))
(assert (= e_836 (select a_833 i2)))
(assert (= e_840 (select a_839 i1)))
(assert (= e_842 (select a_839 i6)))
(assert (= e_844 (select a_843 i3)))
(assert (= e_846 (select a_843 i6)))
(assert (= e_848 (select a_847 i3)))
(assert (= e_850 (select a_847 i7)))
(assert (= e_852 (select a_851 i6)))
(assert (= e_854 (select a_851 i5)))
(assert (= e_856 (select a_855 i0)))
(assert (= e_858 (select a_855 i3)))
(assert (= e_860 (select a_859 i6)))
(assert (= e_862 (select a_859 i0)))
(assert (= e_864 (select a_863 i4)))
(assert (= e_866 (select a_863 i5)))
(assert (= e_868 (select a_867 i5)))
(assert (= e_870 (select a_867 i2)))
(assert (not (= a_837 a_871)))
(check-sat)
(exit)
